1625119200
1625149800
1626156000
1626189300
1626069600
1626100200
1626242400
1626273000
1626328800
1626359520
1626415200
1626446220
1626674400
1626705180
1626760800
1626791520
1626847200
1626878700
1626933600
1626964380
1627020000
1627050600
1627279200
1627309860
1627365600
1627396200
1627452000
1627482900
1627538400
1627569000
1627623660
1627654500
